c File: instances/24_0.50_3.col
c
c Description: Random graph of size 24 vertices and P(0.49999999999999994) of edges between any two vertices.
p col 24 276
e 1 5
e 1 6
e 1 10
e 1 12
e 1 15
e 1 18
e 1 20
e 1 22
e 1 23
e 2 5
e 2 12
e 2 13
e 2 14
e 2 17
e 2 19
e 2 23
e 3 5
e 3 6
e 3 9
e 3 10
e 3 11
e 3 13
e 3 14
e 3 16
e 3 19
e 3 21
e 4 5
e 4 7
e 4 8
e 4 12
e 4 16
e 4 17
e 4 23
e 4 24
e 5 6
e 5 7
e 5 9
e 5 12
e 5 14
e 5 18
e 5 19
e 5 20
e 5 21
e 5 22
e 5 23
e 6 7
e 6 8
e 6 10
e 6 11
e 6 12
e 6 13
e 6 15
e 6 16
e 6 17
e 6 18
e 6 19
e 6 20
e 6 21
e 6 22
e 7 9
e 7 12
e 7 19
e 7 21
e 7 22
e 7 23
e 7 24
e 8 9
e 8 10
e 8 11
e 8 13
e 8 16
e 8 19
e 8 20
e 8 24
e 9 13
e 9 15
e 9 16
e 9 17
e 9 20
e 9 24
e 10 11
e 10 12
e 10 15
e 10 16
e 10 17
e 10 22
e 10 23
e 10 24
e 11 13
e 11 17
e 11 19
e 11 22
e 12 13
e 12 14
e 12 15
e 12 16
e 12 17
e 12 23
e 12 24
e 13 14
e 13 15
e 13 16
e 13 19
e 13 20
e 13 22
e 14 15
e 14 16
e 14 18
e 14 19
e 14 21
e 14 23
e 15 16
e 15 19
e 15 21
e 16 18
e 16 19
e 16 23
e 17 18
e 17 20
e 17 22
e 17 23
e 18 19
e 18 20
e 18 21
e 18 22
e 18 24
e 19 22
e 19 24
e 20 23
e 20 24
e 21 22
e 21 24
e 22 23
e 22 24
e 23 24